20
1 0 25
2 0 10
2 1 71
3 0 41
3 1 23
3 2 23
4 0 67
4 1 33
4 2 22
4 3 73
5 0 1
5 1 6
5 2 76
5 3 48
5 4 25
6 0 30
6 1 10
6 2 35
6 3 67
6 4 61
6 5 77
7 0 6
7 1 76
7 2 53
7 3 57
7 4 80
7 5 53
7 6 79
8 0 62
8 1 41
8 2 53
8 3 12
8 4 6
8 5 79
8 6 39
8 7 62
9 0 58
9 1 54
9 2 49
9 3 59
9 4 50
9 5 6
9 6 53
9 7 45
9 8 43
10 0 36
10 1 71
10 2 77
10 3 47
10 4 15
10 5 37
10 6 22
10 7 31
10 8 2
10 9 42
11 0 7
11 1 17
11 2 31
11 3 74
11 4 5
11 5 71
11 6 21
11 7 77
11 8 9
11 9 22
11 10 37
12 0 58
12 1 16
12 2 53
12 3 4
12 4 66
12 5 26
12 6 24
12 7 41
12 8 34
12 9 65
12 10 75
12 11 64
13 0 18
13 1 54
13 2 11
13 3 15
13 4 39
13 5 56
13 6 52
13 7 77
13 8 23
13 9 57
13 10 17
13 11 77
13 12 67
14 0 74
14 1 41
14 2 60
14 3 21
14 4 38
14 5 10
14 6 76
14 7 22
14 8 47
14 9 57
14 10 61
14 11 65
14 12 63
14 13 74
15 0 77
15 1 19
15 2 24
15 3 42
15 4 69
15 5 76
15 6 39
15 7 65
15 8 73
15 9 38
15 10 71
15 11 40
15 12 80
15 13 9
15 14 22
16 0 33
16 1 45
16 2 12
16 3 65
16 4 55
16 5 20
16 6 68
16 7 22
16 8 38
16 9 47
16 10 66
16 11 58
16 12 22
16 13 63
16 14 56
16 15 23
17 0 21
17 1 76
17 2 66
17 3 67
17 4 34
17 5 6
17 6 58
17 7 66
17 8 21
17 9 57
17 10 39
17 11 33
17 12 35
17 13 4
17 14 8
17 15 58
17 16 47
18 0 1
18 1 64
18 2 79
18 3 8
18 4 36
18 5 38
18 6 50
18 7 60
18 8 43
18 9 3
18 10 65
18 11 32
18 12 8
18 13 26
18 14 76
18 15 8
18 16 15
18 17 49
19 0 1
19 1 32
19 2 41
19 3 10
19 4 70
19 5 51
19 6 17
19 7 79
19 8 75
19 9 45
19 10 23
19 11 42
19 12 55
19 13 41
19 14 42
19 15 70
19 16 13
19 17 5
19 18 69
